NAME : ClusterId_1022 
COMMENT : (Gillet and Johnson) 
TYPE : CVRP 
DIMENSION : 15 
EDGE_WEIGHT_TYPE : EUC_2D 
CAPACITY : 500 
NODE_COORD_SECTION 
1022 2698 3014 
417 2616 2618 
967 2661 2517 
195 2612 3822 
986 2637 3370 
60 2665 3668 
354 2760 2687 
635 2771 2675 
889 2885 2531 
525 2974 2347 
984 2771 3609 
585 3025 2260 
980 3057 2888 
878 3322 2704 
586 3320 2915 
DEMAND_SECTION 
1022 634
417 46
967 33
195 50
986 51
60 35
354 48
635 50
889 35
525 41
984 32
585 51
980 49
878 39
586 45
DEPOT_SECTION 
1022
 -1
EOF